HUN,8,6,833
4,11,5,4,3,12,2,6,1,13,0,20
4,25,1,23,5,12,2,10,3,27,0,11
3,3,1,20,0,16,2,2,5,22,4,22
2,11,3,23,0,29,1,18,5,1,4,28
5,26,4,18,3,5,2,6,0,12,1,16
1,20,0,28,4,5,5,11,2,20,3,22
3,28,2,4,4,2,5,16,1,6,0,2
1,5,3,27,0,16,4,21,5,27,2,24
